g3 1 1 0	# problem discs
 33 66 1 0 18	# vars, constraints, objectives, ranges, eqns
 66 0	# nonlinear constraints, objectives
 0 0	# network constraints: nonlinear, linear
 33 0 0	# nonlinear vars in constraints, objectives, both
 0 0 0 1	# linear network variables; functions; arith, flags
 0 0 0 0 0	# discrete variables: binary, integer, nonlinear (b,c,o)
 363 12	# nonzeros in Jacobian, gradients
 0 0	# max name lengths: constraints, variables
 0 0 0 0 0	# common exprs: b,c,o,c1,o1
C0	#cons1[2,1]
o1	# - 
o5	#^
o0	# + 
v22	#r[2]
v21	#r[1]
n2
o5	#^
v0	#x[2]
n2
C1	#cons1[3,2]
o54	#sumlist
3
o5	#^
o0	# + 
v23	#r[3]
v22	#r[2]
n2
o16	#-
o5	#^
o1	# - 
v1	#x[3]
v0	#x[2]
n2
o16	#-
o5	#^
v11	#y[3]
n2
C2	#cons1[4,2]
o54	#sumlist
3
o5	#^
o0	# + 
v24	#r[4]
v22	#r[2]
n2
o16	#-
o5	#^
o1	# - 
v2	#x[4]
v0	#x[2]
n2
o16	#-
o5	#^
v12	#y[4]
n2
C3	#cons1[4,3]
o54	#sumlist
3
o5	#^
o0	# + 
v24	#r[4]
v23	#r[3]
n2
o16	#-
o5	#^
o1	# - 
v2	#x[4]
v1	#x[3]
n2
o16	#-
o5	#^
o1	# - 
v12	#y[4]
v11	#y[3]
n2
C4	#cons1[5,4]
o54	#sumlist
3
o5	#^
o0	# + 
v25	#r[5]
v24	#r[4]
n2
o16	#-
o5	#^
o1	# - 
v3	#x[5]
v2	#x[4]
n2
o16	#-
o5	#^
o1	# - 
v13	#y[5]
v12	#y[4]
n2
C5	#cons1[6,4]
o54	#sumlist
3
o5	#^
o0	# + 
v26	#r[6]
v24	#r[4]
n2
o16	#-
o5	#^
o1	# - 
v4	#x[6]
v2	#x[4]
n2
o16	#-
o5	#^
o1	# - 
v14	#y[6]
v12	#y[4]
n2
C6	#cons1[6,5]
o54	#sumlist
3
o5	#^
o0	# + 
v26	#r[6]
v25	#r[5]
n2
o16	#-
o5	#^
o1	# - 
v4	#x[6]
v3	#x[5]
n2
o16	#-
o5	#^
o1	# - 
v14	#y[6]
v13	#y[5]
n2
C7	#cons1[7,1]
o54	#sumlist
3
o5	#^
o0	# + 
v27	#r[7]
v21	#r[1]
n2
o16	#-
o5	#^
v5	#x[7]
n2
o16	#-
o5	#^
v15	#y[7]
n2
C8	#cons1[7,6]
o54	#sumlist
3
o5	#^
o0	# + 
v27	#r[7]
v26	#r[6]
n2
o16	#-
o5	#^
o1	# - 
v5	#x[7]
v4	#x[6]
n2
o16	#-
o5	#^
o1	# - 
v15	#y[7]
v14	#y[6]
n2
C9	#cons1[8,7]
o54	#sumlist
3
o5	#^
o0	# + 
v28	#r[8]
v27	#r[7]
n2
o16	#-
o5	#^
o1	# - 
v6	#x[8]
v5	#x[7]
n2
o16	#-
o5	#^
o1	# - 
v16	#y[8]
v15	#y[7]
n2
C10	#cons1[9,7]
o54	#sumlist
3
o5	#^
o0	# + 
v29	#r[9]
v27	#r[7]
n2
o16	#-
o5	#^
o1	# - 
v7	#x[9]
v5	#x[7]
n2
o16	#-
o5	#^
o1	# - 
v17	#y[9]
v15	#y[7]
n2
C11	#cons1[9,8]
o54	#sumlist
3
o5	#^
o0	# + 
v29	#r[9]
v28	#r[8]
n2
o16	#-
o5	#^
o1	# - 
v7	#x[9]
v6	#x[8]
n2
o16	#-
o5	#^
o1	# - 
v17	#y[9]
v16	#y[8]
n2
C12	#cons1[10,8]
o54	#sumlist
3
o5	#^
o0	# + 
v30	#r[10]
v28	#r[8]
n2
o16	#-
o5	#^
o1	# - 
v8	#x[10]
v6	#x[8]
n2
o16	#-
o5	#^
o1	# - 
v18	#y[10]
v16	#y[8]
n2
C13	#cons1[10,9]
o54	#sumlist
3
o5	#^
o0	# + 
v30	#r[10]
v29	#r[9]
n2
o16	#-
o5	#^
o1	# - 
v8	#x[10]
v7	#x[9]
n2
o16	#-
o5	#^
o1	# - 
v18	#y[10]
v17	#y[9]
n2
C14	#cons1[11,5]
o54	#sumlist
3
o5	#^
o0	# + 
v31	#r[11]
v25	#r[5]
n2
o16	#-
o5	#^
o1	# - 
v9	#x[11]
v3	#x[5]
n2
o16	#-
o5	#^
o1	# - 
v19	#y[11]
v13	#y[5]
n2
C15	#cons1[11,10]
o54	#sumlist
3
o5	#^
o0	# + 
v31	#r[11]
v30	#r[10]
n2
o16	#-
o5	#^
o1	# - 
v9	#x[11]
v8	#x[10]
n2
o16	#-
o5	#^
o1	# - 
v19	#y[11]
v18	#y[10]
n2
C16	#cons1[12,10]
o54	#sumlist
3
o5	#^
o0	# + 
v32	#r[12]
v30	#r[10]
n2
o16	#-
o5	#^
o1	# - 
v10	#x[12]
v8	#x[10]
n2
o16	#-
o5	#^
o1	# - 
v20	#y[12]
v18	#y[10]
n2
C17	#cons1[12,11]
o54	#sumlist
3
o5	#^
o0	# + 
v32	#r[12]
v31	#r[11]
n2
o16	#-
o5	#^
o1	# - 
v10	#x[12]
v9	#x[11]
n2
o16	#-
o5	#^
o1	# - 
v20	#y[12]
v19	#y[11]
n2
C18	#cons2[3,1]
o54	#sumlist
3
o5	#^
o0	# + 
v23	#r[3]
v21	#r[1]
n2
o16	#-
o5	#^
v1	#x[3]
n2
o16	#-
o5	#^
v11	#y[3]
n2
C19	#cons2[4,1]
o54	#sumlist
3
o5	#^
o0	# + 
v24	#r[4]
v21	#r[1]
n2
o16	#-
o5	#^
v2	#x[4]
n2
o16	#-
o5	#^
v12	#y[4]
n2
C20	#cons2[5,1]
o54	#sumlist
3
o5	#^
o0	# + 
v25	#r[5]
v21	#r[1]
n2
o16	#-
o5	#^
v3	#x[5]
n2
o16	#-
o5	#^
v13	#y[5]
n2
C21	#cons2[5,2]
o54	#sumlist
3
o5	#^
o0	# + 
v25	#r[5]
v22	#r[2]
n2
o16	#-
o5	#^
o1	# - 
v3	#x[5]
v0	#x[2]
n2
o16	#-
o5	#^
v13	#y[5]
n2
C22	#cons2[5,3]
o54	#sumlist
3
o5	#^
o0	# + 
v25	#r[5]
v23	#r[3]
n2
o16	#-
o5	#^
o1	# - 
v3	#x[5]
v1	#x[3]
n2
o16	#-
o5	#^
o1	# - 
v13	#y[5]
v11	#y[3]
n2
C23	#cons2[6,1]
o54	#sumlist
3
o5	#^
o0	# + 
v26	#r[6]
v21	#r[1]
n2
o16	#-
o5	#^
v4	#x[6]
n2
o16	#-
o5	#^
v14	#y[6]
n2
C24	#cons2[6,2]
o54	#sumlist
3
o5	#^
o0	# + 
v26	#r[6]
v22	#r[2]
n2
o16	#-
o5	#^
o1	# - 
v4	#x[6]
v0	#x[2]
n2
o16	#-
o5	#^
v14	#y[6]
n2
C25	#cons2[6,3]
o54	#sumlist
3
o5	#^
o0	# + 
v26	#r[6]
v23	#r[3]
n2
o16	#-
o5	#^
o1	# - 
v4	#x[6]
v1	#x[3]
n2
o16	#-
o5	#^
o1	# - 
v14	#y[6]
v11	#y[3]
n2
C26	#cons2[7,2]
o54	#sumlist
3
o5	#^
o0	# + 
v27	#r[7]
v22	#r[2]
n2
o16	#-
o5	#^
o1	# - 
v5	#x[7]
v0	#x[2]
n2
o16	#-
o5	#^
v15	#y[7]
n2
C27	#cons2[7,3]
o54	#sumlist
3
o5	#^
o0	# + 
v27	#r[7]
v23	#r[3]
n2
o16	#-
o5	#^
o1	# - 
v5	#x[7]
v1	#x[3]
n2
o16	#-
o5	#^
o1	# - 
v15	#y[7]
v11	#y[3]
n2
C28	#cons2[7,4]
o54	#sumlist
3
o5	#^
o0	# + 
v27	#r[7]
v24	#r[4]
n2
o16	#-
o5	#^
o1	# - 
v5	#x[7]
v2	#x[4]
n2
o16	#-
o5	#^
o1	# - 
v15	#y[7]
v12	#y[4]
n2
C29	#cons2[7,5]
o54	#sumlist
3
o5	#^
o0	# + 
v27	#r[7]
v25	#r[5]
n2
o16	#-
o5	#^
o1	# - 
v5	#x[7]
v3	#x[5]
n2
o16	#-
o5	#^
o1	# - 
v15	#y[7]
v13	#y[5]
n2
C30	#cons2[8,1]
o54	#sumlist
3
o5	#^
o0	# + 
v28	#r[8]
v21	#r[1]
n2
o16	#-
o5	#^
v6	#x[8]
n2
o16	#-
o5	#^
v16	#y[8]
n2
C31	#cons2[8,2]
o54	#sumlist
3
o5	#^
o0	# + 
v28	#r[8]
v22	#r[2]
n2
o16	#-
o5	#^
o1	# - 
v6	#x[8]
v0	#x[2]
n2
o16	#-
o5	#^
v16	#y[8]
n2
C32	#cons2[8,3]
o54	#sumlist
3
o5	#^
o0	# + 
v28	#r[8]
v23	#r[3]
n2
o16	#-
o5	#^
o1	# - 
v6	#x[8]
v1	#x[3]
n2
o16	#-
o5	#^
o1	# - 
v16	#y[8]
v11	#y[3]
n2
C33	#cons2[8,4]
o54	#sumlist
3
o5	#^
o0	# + 
v28	#r[8]
v24	#r[4]
n2
o16	#-
o5	#^
o1	# - 
v6	#x[8]
v2	#x[4]
n2
o16	#-
o5	#^
o1	# - 
v16	#y[8]
v12	#y[4]
n2
C34	#cons2[8,5]
o54	#sumlist
3
o5	#^
o0	# + 
v28	#r[8]
v25	#r[5]
n2
o16	#-
o5	#^
o1	# - 
v6	#x[8]
v3	#x[5]
n2
o16	#-
o5	#^
o1	# - 
v16	#y[8]
v13	#y[5]
n2
C35	#cons2[8,6]
o54	#sumlist
3
o5	#^
o0	# + 
v28	#r[8]
v26	#r[6]
n2
o16	#-
o5	#^
o1	# - 
v6	#x[8]
v4	#x[6]
n2
o16	#-
o5	#^
o1	# - 
v16	#y[8]
v14	#y[6]
n2
C36	#cons2[9,1]
o54	#sumlist
3
o5	#^
o0	# + 
v29	#r[9]
v21	#r[1]
n2
o16	#-
o5	#^
v7	#x[9]
n2
o16	#-
o5	#^
v17	#y[9]
n2
C37	#cons2[9,2]
o54	#sumlist
3
o5	#^
o0	# + 
v29	#r[9]
v22	#r[2]
n2
o16	#-
o5	#^
o1	# - 
v7	#x[9]
v0	#x[2]
n2
o16	#-
o5	#^
v17	#y[9]
n2
C38	#cons2[9,3]
o54	#sumlist
3
o5	#^
o0	# + 
v29	#r[9]
v23	#r[3]
n2
o16	#-
o5	#^
o1	# - 
v7	#x[9]
v1	#x[3]
n2
o16	#-
o5	#^
o1	# - 
v17	#y[9]
v11	#y[3]
n2
C39	#cons2[9,4]
o54	#sumlist
3
o5	#^
o0	# + 
v29	#r[9]
v24	#r[4]
n2
o16	#-
o5	#^
o1	# - 
v7	#x[9]
v2	#x[4]
n2
o16	#-
o5	#^
o1	# - 
v17	#y[9]
v12	#y[4]
n2
C40	#cons2[9,5]
o54	#sumlist
3
o5	#^
o0	# + 
v29	#r[9]
v25	#r[5]
n2
o16	#-
o5	#^
o1	# - 
v7	#x[9]
v3	#x[5]
n2
o16	#-
o5	#^
o1	# - 
v17	#y[9]
v13	#y[5]
n2
C41	#cons2[9,6]
o54	#sumlist
3
o5	#^
o0	# + 
v29	#r[9]
v26	#r[6]
n2
o16	#-
o5	#^
o1	# - 
v7	#x[9]
v4	#x[6]
n2
o16	#-
o5	#^
o1	# - 
v17	#y[9]
v14	#y[6]
n2
C42	#cons2[10,1]
o54	#sumlist
3
o5	#^
o0	# + 
v30	#r[10]
v21	#r[1]
n2
o16	#-
o5	#^
v8	#x[10]
n2
o16	#-
o5	#^
v18	#y[10]
n2
C43	#cons2[10,2]
o54	#sumlist
3
o5	#^
o0	# + 
v30	#r[10]
v22	#r[2]
n2
o16	#-
o5	#^
o1	# - 
v8	#x[10]
v0	#x[2]
n2
o16	#-
o5	#^
v18	#y[10]
n2
C44	#cons2[10,3]
o54	#sumlist
3
o5	#^
o0	# + 
v30	#r[10]
v23	#r[3]
n2
o16	#-
o5	#^
o1	# - 
v8	#x[10]
v1	#x[3]
n2
o16	#-
o5	#^
o1	# - 
v18	#y[10]
v11	#y[3]
n2
C45	#cons2[10,4]
o54	#sumlist
3
o5	#^
o0	# + 
v30	#r[10]
v24	#r[4]
n2
o16	#-
o5	#^
o1	# - 
v8	#x[10]
v2	#x[4]
n2
o16	#-
o5	#^
o1	# - 
v18	#y[10]
v12	#y[4]
n2
C46	#cons2[10,5]
o54	#sumlist
3
o5	#^
o0	# + 
v30	#r[10]
v25	#r[5]
n2
o16	#-
o5	#^
o1	# - 
v8	#x[10]
v3	#x[5]
n2
o16	#-
o5	#^
o1	# - 
v18	#y[10]
v13	#y[5]
n2
C47	#cons2[10,6]
o54	#sumlist
3
o5	#^
o0	# + 
v30	#r[10]
v26	#r[6]
n2
o16	#-
o5	#^
o1	# - 
v8	#x[10]
v4	#x[6]
n2
o16	#-
o5	#^
o1	# - 
v18	#y[10]
v14	#y[6]
n2
C48	#cons2[10,7]
o54	#sumlist
3
o5	#^
o0	# + 
v30	#r[10]
v27	#r[7]
n2
o16	#-
o5	#^
o1	# - 
v8	#x[10]
v5	#x[7]
n2
o16	#-
o5	#^
o1	# - 
v18	#y[10]
v15	#y[7]
n2
C49	#cons2[11,1]
o54	#sumlist
3
o5	#^
o0	# + 
v31	#r[11]
v21	#r[1]
n2
o16	#-
o5	#^
v9	#x[11]
n2
o16	#-
o5	#^
v19	#y[11]
n2
C50	#cons2[11,2]
o54	#sumlist
3
o5	#^
o0	# + 
v31	#r[11]
v22	#r[2]
n2
o16	#-
o5	#^
o1	# - 
v9	#x[11]
v0	#x[2]
n2
o16	#-
o5	#^
v19	#y[11]
n2
C51	#cons2[11,3]
o54	#sumlist
3
o5	#^
o0	# + 
v31	#r[11]
v23	#r[3]
n2
o16	#-
o5	#^
o1	# - 
v9	#x[11]
v1	#x[3]
n2
o16	#-
o5	#^
o1	# - 
v19	#y[11]
v11	#y[3]
n2
C52	#cons2[11,4]
o54	#sumlist
3
o5	#^
o0	# + 
v31	#r[11]
v24	#r[4]
n2
o16	#-
o5	#^
o1	# - 
v9	#x[11]
v2	#x[4]
n2
o16	#-
o5	#^
o1	# - 
v19	#y[11]
v12	#y[4]
n2
C53	#cons2[11,6]
o54	#sumlist
3
o5	#^
o0	# + 
v31	#r[11]
v26	#r[6]
n2
o16	#-
o5	#^
o1	# - 
v9	#x[11]
v4	#x[6]
n2
o16	#-
o5	#^
o1	# - 
v19	#y[11]
v14	#y[6]
n2
C54	#cons2[11,7]
o54	#sumlist
3
o5	#^
o0	# + 
v31	#r[11]
v27	#r[7]
n2
o16	#-
o5	#^
o1	# - 
v9	#x[11]
v5	#x[7]
n2
o16	#-
o5	#^
o1	# - 
v19	#y[11]
v15	#y[7]
n2
C55	#cons2[11,8]
o54	#sumlist
3
o5	#^
o0	# + 
v31	#r[11]
v28	#r[8]
n2
o16	#-
o5	#^
o1	# - 
v9	#x[11]
v6	#x[8]
n2
o16	#-
o5	#^
o1	# - 
v19	#y[11]
v16	#y[8]
n2
C56	#cons2[11,9]
o54	#sumlist
3
o5	#^
o0	# + 
v31	#r[11]
v29	#r[9]
n2
o16	#-
o5	#^
o1	# - 
v9	#x[11]
v7	#x[9]
n2
o16	#-
o5	#^
o1	# - 
v19	#y[11]
v17	#y[9]
n2
C57	#cons2[12,1]
o54	#sumlist
3
o5	#^
o0	# + 
v32	#r[12]
v21	#r[1]
n2
o16	#-
o5	#^
v10	#x[12]
n2
o16	#-
o5	#^
v20	#y[12]
n2
C58	#cons2[12,2]
o54	#sumlist
3
o5	#^
o0	# + 
v32	#r[12]
v22	#r[2]
n2
o16	#-
o5	#^
o1	# - 
v10	#x[12]
v0	#x[2]
n2
o16	#-
o5	#^
v20	#y[12]
n2
C59	#cons2[12,3]
o54	#sumlist
3
o5	#^
o0	# + 
v32	#r[12]
v23	#r[3]
n2
o16	#-
o5	#^
o1	# - 
v10	#x[12]
v1	#x[3]
n2
o16	#-
o5	#^
o1	# - 
v20	#y[12]
v11	#y[3]
n2
C60	#cons2[12,4]
o54	#sumlist
3
o5	#^
o0	# + 
v32	#r[12]
v24	#r[4]
n2
o16	#-
o5	#^
o1	# - 
v10	#x[12]
v2	#x[4]
n2
o16	#-
o5	#^
o1	# - 
v20	#y[12]
v12	#y[4]
n2
C61	#cons2[12,5]
o54	#sumlist
3
o5	#^
o0	# + 
v32	#r[12]
v25	#r[5]
n2
o16	#-
o5	#^
o1	# - 
v10	#x[12]
v3	#x[5]
n2
o16	#-
o5	#^
o1	# - 
v20	#y[12]
v13	#y[5]
n2
C62	#cons2[12,6]
o54	#sumlist
3
o5	#^
o0	# + 
v32	#r[12]
v26	#r[6]
n2
o16	#-
o5	#^
o1	# - 
v10	#x[12]
v4	#x[6]
n2
o16	#-
o5	#^
o1	# - 
v20	#y[12]
v14	#y[6]
n2
C63	#cons2[12,7]
o54	#sumlist
3
o5	#^
o0	# + 
v32	#r[12]
v27	#r[7]
n2
o16	#-
o5	#^
o1	# - 
v10	#x[12]
v5	#x[7]
n2
o16	#-
o5	#^
o1	# - 
v20	#y[12]
v15	#y[7]
n2
C64	#cons2[12,8]
o54	#sumlist
3
o5	#^
o0	# + 
v32	#r[12]
v28	#r[8]
n2
o16	#-
o5	#^
o1	# - 
v10	#x[12]
v6	#x[8]
n2
o16	#-
o5	#^
o1	# - 
v20	#y[12]
v16	#y[8]
n2
C65	#cons2[12,9]
o54	#sumlist
3
o5	#^
o0	# + 
v32	#r[12]
v29	#r[9]
n2
o16	#-
o5	#^
o1	# - 
v10	#x[12]
v7	#x[9]
n2
o16	#-
o5	#^
o1	# - 
v20	#y[12]
v17	#y[9]
n2
O0 0	#f
n0
x33	# initial guess
0 0.06
1 0.09
2 0.12
3 0.15
4 0.18
5 0.21
6 0.24
7 0.27
8 0.3
9 0.32999999999999996
10 0.36
11 0.0166665
12 0.022222
13 0.027777499999999997
14 0.033333
15 0.0388885
16 0.044444
17 0.049999499999999995
18 0.05555499999999999
19 0.0611105
20 0.066666
21 1
22 2
23 3
24 4
25 5
26 6
27 7
28 8
29 9
30 10
31 11
32 12
r	#66 ranges (rhs's)
4 0
4 0
4 0
4 0
4 0
4 0
4 0
4 0
4 0
4 0
4 0
4 0
4 0
4 0
4 0
4 0
4 0
4 0
1 -0.0001
1 -0.0001
1 -0.0001
1 -0.0001
1 -0.0001
1 -0.0001
1 -0.0001
1 -0.0001
1 -0.0001
1 -0.0001
1 -0.0001
1 -0.0001
1 -0.0001
1 -0.0001
1 -0.0001
1 -0.0001
1 -0.0001
1 -0.0001
1 -0.0001
1 -0.0001
1 -0.0001
1 -0.0001
1 -0.0001
1 -0.0001
1 -0.0001
1 -0.0001
1 -0.0001
1 -0.0001
1 -0.0001
1 -0.0001
1 -0.0001
1 -0.0001
1 -0.0001
1 -0.0001
1 -0.0001
1 -0.0001
1 -0.0001
1 -0.0001
1 -0.0001
1 -0.0001
1 -0.0001
1 -0.0001
1 -0.0001
1 -0.0001
1 -0.0001
1 -0.0001
1 -0.0001
1 -0.0001
b	#33 bounds (on variables)
0 -1.e8 1.e8
0 -1.e8 1.e8
0 -1.e8 1.e8
0 -1.e8 1.e8
0 -1.e8 1.e8
0 -1.e8 1.e8
0 -1.e8 1.e8
0 -1.e8 1.e8
0 -1.e8 1.e8
0 -1.e8 1.e8
0 -1.e8 1.e8
0 -1.e8 1.e8
0 -1.e8 1.e8
0 -1.e8 1.e8
0 -1.e8 1.e8
0 -1.e8 1.e8
0 -1.e8 1.e8
0 -1.e8 1.e8
0 -1.e8 1.e8
0 -1.e8 1.e8
0 -1.e8 1.e8
0 -1.e8 1.e8
0 -1.e8 1.e8
0 -1.e8 1.e8
0 -1.e8 1.e8
0 -1.e8 1.e8
0 -1.e8 1.e8
0 -1.e8 1.e8
0 -1.e8 1.e8
0 -1.e8 1.e8
0 -1.e8 1.e8
0 -1.e8 1.e8
0 -1.e8 1.e8
k32	#intermediate Jacobian column lengths
11
22
33
44
55
66
77
88
99
110
121
132
143
154
165
176
187
198
209
220
231
242
253
264
275
286
297
308
319
330
341
352
J0 3
0 0
21 0
22 0
J1 5
0 0
1 0
11 0
22 0
23 0
J2 5
0 0
2 0
12 0
22 0
24 0
J3 6
1 0
2 0
11 0
12 0
23 0
24 0
J4 6
2 0
3 0
12 0
13 0
24 0
25 0
J5 6
2 0
4 0
12 0
14 0
24 0
26 0
J6 6
3 0
4 0
13 0
14 0
25 0
26 0
J7 4
5 0
15 0
21 0
27 0
J8 6
4 0
5 0
14 0
15 0
26 0
27 0
J9 6
5 0
6 0
15 0
16 0
27 0
28 0
J10 6
5 0
7 0
15 0
17 0
27 0
29 0
J11 6
6 0
7 0
16 0
17 0
28 0
29 0
J12 6
6 0
8 0
16 0
18 0
28 0
30 0
J13 6
7 0
8 0
17 0
18 0
29 0
30 0
J14 6
3 0
9 0
13 0
19 0
25 0
31 0
J15 6
8 0
9 0
18 0
19 0
30 0
31 0
J16 6
8 0
10 0
18 0
20 0
30 0
32 0
J17 6
9 0
10 0
19 0
20 0
31 0
32 0
J18 4
1 0
11 0
21 0
23 0
J19 4
2 0
12 0
21 0
24 0
J20 4
3 0
13 0
21 0
25 0
J21 5
0 0
3 0
13 0
22 0
25 0
J22 6
1 0
3 0
11 0
13 0
23 0
25 0
J23 4
4 0
14 0
21 0
26 0
J24 5
0 0
4 0
14 0
22 0
26 0
J25 6
1 0
4 0
11 0
14 0
23 0
26 0
J26 5
0 0
5 0
15 0
22 0
27 0
J27 6
1 0
5 0
11 0
15 0
23 0
27 0
J28 6
2 0
5 0
12 0
15 0
24 0
27 0
J29 6
3 0
5 0
13 0
15 0
25 0
27 0
J30 4
6 0
16 0
21 0
28 0
J31 5
0 0
6 0
16 0
22 0
28 0
J32 6
1 0
6 0
11 0
16 0
23 0
28 0
J33 6
2 0
6 0
12 0
16 0
24 0
28 0
J34 6
3 0
6 0
13 0
16 0
25 0
28 0
J35 6
4 0
6 0
14 0
16 0
26 0
28 0
J36 4
7 0
17 0
21 0
29 0
J37 5
0 0
7 0
17 0
22 0
29 0
J38 6
1 0
7 0
11 0
17 0
23 0
29 0
J39 6
2 0
7 0
12 0
17 0
24 0
29 0
J40 6
3 0
7 0
13 0
17 0
25 0
29 0
J41 6
4 0
7 0
14 0
17 0
26 0
29 0
J42 4
8 0
18 0
21 0
30 0
J43 5
0 0
8 0
18 0
22 0
30 0
J44 6
1 0
8 0
11 0
18 0
23 0
30 0
J45 6
2 0
8 0
12 0
18 0
24 0
30 0
J46 6
3 0
8 0
13 0
18 0
25 0
30 0
J47 6
4 0
8 0
14 0
18 0
26 0
30 0
J48 6
5 0
8 0
15 0
18 0
27 0
30 0
J49 4
9 0
19 0
21 0
31 0
J50 5
0 0
9 0
19 0
22 0
31 0
J51 6
1 0
9 0
11 0
19 0
23 0
31 0
J52 6
2 0
9 0
12 0
19 0
24 0
31 0
J53 6
4 0
9 0
14 0
19 0
26 0
31 0
J54 6
5 0
9 0
15 0
19 0
27 0
31 0
J55 6
6 0
9 0
16 0
19 0
28 0
31 0
J56 6
7 0
9 0
17 0
19 0
29 0
31 0
J57 4
10 0
20 0
21 0
32 0
J58 5
0 0
10 0
20 0
22 0
32 0
J59 6
1 0
10 0
11 0
20 0
23 0
32 0
J60 6
2 0
10 0
12 0
20 0
24 0
32 0
J61 6
3 0
10 0
13 0
20 0
25 0
32 0
J62 6
4 0
10 0
14 0
20 0
26 0
32 0
J63 6
5 0
10 0
15 0
20 0
27 0
32 0
J64 6
6 0
10 0
16 0
20 0
28 0
32 0
J65 6
7 0
10 0
17 0
20 0
29 0
32 0
G0 12
21 1
22 1
23 1
24 1
25 1
26 1
27 1
28 1
29 1
30 1
31 1
32 1
